c Generated map
c Size: 13 * 13, weights in range: 1 to 10, walls: True, with ratio 0.1
c dim 2 of 4
c
p sp 169 253
c graph contains 169 nodes and 253 arcs
c
a 1 14 8
a 14 1 8
a 1 2 8
a 2 1 8
a 2 15 8
a 15 2 8
a 2 3 1
a 3 2 1
a 3 16 2
a 16 3 2
a 3 4 1
a 4 3 1
a 4 17 10
a 17 4 10
a 4 5 1
a 5 4 1
a 5 6 8
a 6 5 8
a 6 19 5
a 19 6 5
a 6 7 3
a 7 6 3
a 7 20 10
a 20 7 10
a 7 8 1
a 8 7 1
a 8 21 4
a 21 8 4
a 10 23 2
a 23 10 2
a 10 11 4
a 11 10 4
a 11 24 8
a 24 11 8
a 11 12 10
a 12 11 10
a 14 27 10
a 27 14 10
a 14 15 9
a 15 14 9
a 15 28 3
a 28 15 3
a 15 16 5
a 16 15 5
a 16 17 4
a 17 16 4
a 19 32 1
a 32 19 1
a 19 20 2
a 20 19 2
a 20 33 3
a 33 20 3
a 20 21 1
a 21 20 1
a 21 34 10
a 34 21 10
a 21 22 3
a 22 21 3
a 22 35 2
a 35 22 2
a 22 23 4
a 23 22 4
a 23 36 10
a 36 23 10
a 23 24 5
a 24 23 5
a 24 37 1
a 37 24 1
a 26 39 10
a 39 26 10
a 27 40 3
a 40 27 3
a 27 28 1
a 28 27 1
a 28 41 5
a 41 28 5
a 31 44 4
a 44 31 4
a 31 32 2
a 32 31 2
a 32 45 8
a 45 32 8
a 32 33 10
a 33 32 10
a 33 46 1
a 46 33 1
a 33 34 5
a 34 33 5
a 34 47 7
a 47 34 7
a 34 35 7
a 35 34 7
a 35 36 1
a 36 35 1
a 36 49 10
a 49 36 10
a 36 37 9
a 37 36 9
a 37 50 10
a 50 37 10
a 37 38 4
a 38 37 4
a 38 51 1
a 51 38 1
a 38 39 5
a 39 38 5
a 39 52 6
a 52 39 6
a 40 53 4
a 53 40 4
a 40 41 9
a 41 40 9
a 41 54 10
a 54 41 10
a 41 42 1
a 42 41 1
a 42 55 4
a 55 42 4
a 42 43 3
a 43 42 3
a 43 56 9
a 56 43 9
a 43 44 10
a 44 43 10
a 44 57 6
a 57 44 6
a 44 45 6
a 45 44 6
a 45 58 4
a 58 45 4
a 45 46 7
a 46 45 7
a 46 47 5
a 47 46 5
a 47 60 1
a 60 47 1
a 49 62 8
a 62 49 8
a 49 50 9
a 50 49 9
a 50 63 2
a 63 50 2
a 50 51 3
a 51 50 3
a 51 64 1
a 64 51 1
a 51 52 4
a 52 51 4
a 52 65 10
a 65 52 10
a 53 66 10
a 66 53 10
a 53 54 7
a 54 53 7
a 54 67 8
a 67 54 8
a 54 55 4
a 55 54 4
a 55 68 9
a 68 55 9
a 55 56 1
a 56 55 1
a 56 69 3
a 69 56 3
a 56 57 2
a 57 56 2
a 57 70 3
a 70 57 3
a 57 58 1
a 58 57 1
a 58 71 1
a 71 58 1
a 60 73 3
a 73 60 3
a 60 61 3
a 61 60 3
a 61 74 10
a 74 61 10
a 61 62 6
a 62 61 6
a 62 63 5
a 63 62 5
a 63 64 2
a 64 63 2
a 64 77 8
a 77 64 8
a 64 65 3
a 65 64 3
a 65 78 1
a 78 65 1
a 66 79 2
a 79 66 2
a 66 67 9
a 67 66 9
a 67 80 10
a 80 67 10
a 67 68 8
a 68 67 8
a 68 81 8
a 81 68 8
a 68 69 3
a 69 68 3
a 69 70 9
a 70 69 9
a 70 83 4
a 83 70 4
a 70 71 7
a 71 70 7
a 71 72 7
a 72 71 7
a 72 85 6
a 85 72 6
a 72 73 6
a 73 72 6
a 73 86 8
a 86 73 8
a 73 74 2
a 74 73 2
a 74 87 2
a 87 74 2
a 77 90 1
a 90 77 1
a 77 78 8
a 78 77 8
a 78 91 8
a 91 78 8
a 79 80 6
a 80 79 6
a 80 93 2
a 93 80 2
a 80 81 3
a 81 80 3
a 81 94 7
a 94 81 7
a 83 96 2
a 96 83 2
a 85 98 8
a 98 85 8
a 85 86 7
a 86 85 7
a 86 99 9
a 99 86 9
a 86 87 6
a 87 86 6
a 87 100 9
a 100 87 9
a 87 88 4
a 88 87 4
a 88 101 6
a 101 88 6
a 88 89 4
a 89 88 4
a 89 102 2
a 102 89 2
a 89 90 6
a 90 89 6
a 90 103 9
a 103 90 9
a 90 91 7
a 91 90 7
a 91 104 4
a 104 91 4
a 93 106 3
a 106 93 3
a 93 94 6
a 94 93 6
a 94 107 1
a 107 94 1
a 94 95 3
a 95 94 3
a 95 108 8
a 108 95 8
a 95 96 3
a 96 95 3
a 96 109 1
a 109 96 1
a 96 97 9
a 97 96 9
a 97 98 3
a 98 97 3
a 98 111 4
a 111 98 4
a 98 99 8
a 99 98 8
a 99 112 2
a 112 99 2
a 99 100 3
a 100 99 3
a 100 113 10
a 113 100 10
a 100 101 10
a 101 100 10
a 101 114 5
a 114 101 5
a 101 102 7
a 102 101 7
a 102 115 10
a 115 102 10
a 102 103 10
a 103 102 10
a 103 116 8
a 116 103 8
a 103 104 8
a 104 103 8
a 104 117 10
a 117 104 10
a 105 118 2
a 118 105 2
a 105 106 5
a 106 105 5
a 106 119 2
a 119 106 2
a 106 107 4
a 107 106 4
a 107 120 2
a 120 107 2
a 107 108 5
a 108 107 5
a 108 109 5
a 109 108 5
a 109 122 8
a 122 109 8
a 111 124 2
a 124 111 2
a 111 112 10
a 112 111 10
a 112 125 8
a 125 112 8
a 112 113 1
a 113 112 1
a 113 126 9
a 126 113 9
a 113 114 9
a 114 113 9
a 114 127 10
a 127 114 10
a 114 115 10
a 115 114 10
a 115 128 6
a 128 115 6
a 115 116 10
a 116 115 10
a 116 129 10
a 129 116 10
a 116 117 10
a 117 116 10
a 117 130 3
a 130 117 3
a 118 131 3
a 131 118 3
a 118 119 6
a 119 118 6
a 119 132 4
a 132 119 4
a 119 120 10
a 120 119 10
a 120 133 1
a 133 120 1
a 122 135 7
a 135 122 7
a 122 123 3
a 123 122 3
a 123 136 5
a 136 123 5
a 123 124 7
a 124 123 7
a 124 137 6
a 137 124 6
a 124 125 7
a 125 124 7
a 125 138 5
a 138 125 5
a 125 126 7
a 126 125 7
a 126 139 7
a 139 126 7
a 126 127 9
a 127 126 9
a 127 140 9
a 140 127 9
a 127 128 5
a 128 127 5
a 128 141 7
a 141 128 7
a 128 129 3
a 129 128 3
a 129 142 5
a 142 129 5
a 129 130 5
a 130 129 5
a 130 143 6
a 143 130 6
a 131 144 1
a 144 131 1
a 131 132 5
a 132 131 5
a 132 145 1
a 145 132 1
a 132 133 10
a 133 132 10
a 133 146 8
a 146 133 8
a 133 134 4
a 134 133 4
a 134 147 3
a 147 134 3
a 134 135 3
a 135 134 3
a 135 148 9
a 148 135 9
a 135 136 7
a 136 135 7
a 136 149 2
a 149 136 2
a 136 137 3
a 137 136 3
a 137 150 9
a 150 137 9
a 137 138 8
a 138 137 8
a 138 151 9
a 151 138 9
a 138 139 8
a 139 138 8
a 139 152 3
a 152 139 3
a 139 140 5
a 140 139 5
a 140 153 8
a 153 140 8
a 140 141 9
a 141 140 9
a 141 154 7
a 154 141 7
a 141 142 5
a 142 141 5
a 142 155 6
a 155 142 6
a 142 143 3
a 143 142 3
a 143 156 7
a 156 143 7
a 144 145 3
a 145 144 3
a 145 158 2
a 158 145 2
a 145 146 2
a 146 145 2
a 146 159 9
a 159 146 9
a 146 147 4
a 147 146 4
a 147 148 7
a 148 147 7
a 148 161 4
a 161 148 4
a 148 149 8
a 149 148 8
a 149 162 10
a 162 149 10
a 149 150 6
a 150 149 6
a 150 163 2
a 163 150 2
a 150 151 3
a 151 150 3
a 151 164 4
a 164 151 4
a 151 152 3
a 152 151 3
a 152 165 4
a 165 152 4
a 152 153 2
a 153 152 2
a 153 166 9
a 166 153 9
a 153 154 4
a 154 153 4
a 154 167 3
a 167 154 3
a 154 155 6
a 155 154 6
a 155 168 6
a 168 155 6
a 155 156 5
a 156 155 5
a 156 169 8
a 169 156 8
a 158 159 7
a 159 158 7
a 161 162 5
a 162 161 5
a 162 163 10
a 163 162 10
a 163 164 7
a 164 163 7
a 164 165 8
a 165 164 8
a 165 166 9
a 166 165 9
a 166 167 8
a 167 166 8
a 167 168 10
a 168 167 10
a 168 169 4
a 169 168 4
